NAME : eil51
COMMENT : 51-city problem (Christofides/Eilon)
TYPE : TSP
DIMENSION : 32
EDGE_WEIGHT_TYPE : EUC_2D
NODE_COORD_SECTION
1 12
2 3
3 23
4 11
5 20
6 13
7 16
8 28
9 22
10 25
11 4
12 1
13 6
14 24
15 29
16 7
17 19
18 8
19 17
20 5
21 31
22 9
23 2
24 27
25 10
26 30
27 14
28 18
29 15
30 26
31 21
